nodes = 464;
edges = 2352;
starts = [1, 2, 2, 3, 3, 4, 5, 6, 6, 6, 7, 7, 8, 8, 8, 9, 9, 9, 10, 11, 11, 12, 12, 12, 12, 13, 13, 13, 14, 15, 15, 15, 16, 16, 16, 17, 17, 17, 18, 18, 18, 19, 19, 19, 20, 20, 21, 21, 21, 21, 22, 22, 22, 23, 23, 23, 24, 24, 24, 24, 25, 25, 25, 26, 26, 26, 27, 28, 28, 28, 29, 29, 29, 30, 31, 31, 31, 32, 32, 32, 33, 33, 33, 34, 34, 34, 35, 35, 35, 36, 36, 36, 37, 37, 37, 38, 38, 38, 39, 39, 39, 40, 40, 40, 41, 41, 42, 42, 42, 43, 43, 43, 43, 44, 44, 44, 45, 45, 45, 46, 46, 46, 47, 47, 47, 48, 48, 48, 49, 49, 49, 49, 50, 50, 50, 51, 51, 51, 52, 52, 52, 52, 53, 53, 53, 54, 54, 54, 55, 55, 55, 55, 56, 56, 56, 57, 57, 57, 58, 58, 58, 58, 59, 59, 59, 60, 61, 62, 63, 63, 64, 64, 65, 65, 66, 66, 66, 67, 67, 68, 69, 69, 70, 70, 71, 72, 73, 73, 73, 74, 74, 74, 75, 75, 75, 75, 76, 76, 77, 78, 79, 79, 80, 80, 81, 81, 82, 82, 83, 83, 84, 85, 85, 86, 86, 87, 87, 88, 89, 90, 90, 91, 91, 91, 92, 93, 93, 94, 94, 95, 95, 95, 96, 96, 96, 97, 97, 97, 98, 98, 99, 99, 100, 101, 102, 102, 102, 103, 103, 103, 104, 104, 104, 105, 105, 105, 106, 107, 107, 107, 108, 108, 109, 109, 110, 110, 110, 111, 111, 111, 112, 112, 112, 113, 113, 113, 114, 114, 114, 115, 115, 115, 116, 116, 116, 117, 117, 117, 118, 118, 118, 119, 119, 119, 119, 120, 120, 120, 121, 121, 121, 122, 122, 122, 123, 123, 123, 124, 124, 125, 125, 126, 126, 127, 127, 127, 128, 128, 128, 129, 129, 129, 130, 130, 131, 131, 131, 132, 132, 133, 133, 134, 134, 135, 135, 136, 136, 137, 137, 138, 138, 138, 139, 139, 139, 140, 140, 140, 141, 141, 141, 142, 142, 143, 143, 143, 144, 144, 144, 145, 145, 145, 146, 146, 146, 147, 147, 147, 148, 148, 149, 149, 149, 150, 150, 150, 151, 151, 151, 152, 152, 152, 153, 153, 154, 154, 154, 155, 155, 155, 156, 156, 156, 157, 157, 158, 158, 159, 160, 161, 161, 162, 162, 162, 162, 163, 163, 163, 163, 164, 164, 164, 165, 166, 166, 167, 167, 167, 167, 168, 168, 169, 169, 169, 170, 170, 170, 171, 171, 171, 172, 172, 172, 172, 173, 173, 173, 174, 174, 174, 175, 175, 175, 176, 176, 177, 177, 177, 178, 178, 179, 179, 179, 180, 180, 180, 181, 181, 181, 182, 182, 182, 183, 183, 183, 184, 184, 184, 185, 185, 186, 186, 187, 187, 187, 188, 188, 188, 189, 189, 190, 190, 190, 190, 191, 191, 191, 192, 192, 192, 193, 193, 193, 194, 194, 194, 195, 195, 196, 196, 196, 197, 197, 197, 197, 198, 198, 199, 199, 199, 200, 200, 200, 201, 201, 201, 202, 202, 202, 203, 203, 203, 204, 204, 204, 205, 205, 205, 206, 206, 206, 207, 207, 208, 208, 208, 209, 209, 209, 209, 210, 211, 212, 212, 212, 213, 213, 213, 214, 214, 215, 215, 215, 216, 216, 217, 217, 217, 217, 218, 218, 218, 219, 219, 220, 220, 220, 221, 221, 221, 222, 222, 222, 223, 223, 223, 223, 224, 224, 224, 225, 225, 225, 226, 226, 226, 227, 227, 227, 228, 228, 229, 230, 230, 230, 231, 232, 232, 232, 233, 233, 234, 234, 234, 235, 235, 235, 236, 236, 236, 236, 237, 237, 238, 238, 239, 239, 239, 240, 240, 240, 241, 241, 242, 242, 243, 243, 244, 245, 245, 245, 246, 247, 247, 248, 249, 249, 250, 251, 252, 252, 253, 253, 253, 254, 254, 255, 255, 255, 256, 257, 257, 257, 258, 259, 259, 259, 260, 260, 261, 261, 261, 262, 262, 262, 263, 264, 264, 264, 265, 265, 266, 266, 266, 267, 267, 267, 268, 268, 268, 269, 269, 270, 270, 270, 271, 271, 271, 272, 272, 272, 273, 273, 274, 274, 274, 275, 275, 275, 276, 276, 276, 277, 277, 278, 278, 278, 279, 279, 279, 280, 280, 280, 281, 281, 281, 282, 282, 282, 283, 283, 283, 284, 284, 284, 285, 285, 285, 286, 286, 286, 287, 287, 287, 288, 288, 288, 289, 289, 289, 290, 290, 291, 291, 291, 292, 292, 292, 293, 293, 293, 294, 294, 294, 295, 295, 295, 296, 296, 296, 296, 297, 298, 298, 298, 299, 300, 301, 302, 302, 302, 303, 303, 303, 304, 304, 304, 305, 305, 305, 306, 307, 307, 307, 308, 308, 308, 309, 309, 309, 310, 311, 311, 311, 312, 313, 313, 313, 314, 314, 314, 315, 315, 316, 316, 316, 317, 317, 317, 318, 318, 319, 319, 319, 320, 320, 320, 321, 321, 322, 322, 322, 323, 323, 324, 324, 325, 325, 325, 326, 326, 326, 326, 327, 327, 328, 328, 328, 329, 329, 329, 330, 330, 331, 331, 332, 332, 333, 334, 334, 334, 335, 335, 336, 337, 337, 337, 338, 338, 338, 339, 340, 341, 341, 341, 342, 343, 343, 343, 343, 344, 344, 344, 344, 345, 345, 345, 346, 346, 347, 347, 348, 348, 349, 349, 349, 349, 350, 350, 350, 351, 351, 352, 352, 352, 352, 353, 353, 354, 354, 354, 354, 355, 355, 356, 356, 357, 358, 358, 359, 359, 359, 360, 360, 360, 361, 361, 362, 362, 362, 363, 363, 363, 364, 364, 364, 365, 365, 366, 366, 367, 367, 368, 368, 368, 369, 369, 369, 370, 370, 370, 370, 371, 372, 372, 373, 373, 374, 374, 375, 375, 375, 375, 376, 376, 377, 377, 377, 378, 378, 379, 379, 380, 380, 380, 381, 381, 382, 382, 382, 382, 383, 383, 383, 384, 384, 385, 385, 385, 386, 386, 386, 387, 387, 387, 388, 388, 388, 389, 389, 389, 390, 390, 390, 391, 392, 392, 392, 393, 393, 394, 394, 394, 395, 395, 395, 396, 396, 397, 397, 398, 398, 398, 399, 399, 399, 400, 400, 400, 401, 401, 401, 401, 402, 402, 402, 403, 403, 404, 404, 404, 405, 405, 405, 406, 407, 407, 407, 408, 409, 409, 410, 410, 410, 411, 411, 412, 412, 412, 413, 413, 413, 414, 414, 415, 415, 416, 416, 416, 417, 417, 417, 418, 418, 418, 419, 419, 419, 420, 420, 420, 421, 421, 421, 422, 422, 422, 423, 423, 423, 424, 424, 425, 425, 425, 426, 426, 426, 427, 427, 427, 428, 428, 428, 429, 429, 430, 430, 430, 431, 431, 431, 432, 432, 433, 433, 433, 434, 434, 434, 435, 436, 436, 436, 437, 437, 438, 438, 438, 439, 439, 439, 440, 440, 440, 441, 441, 441, 442, 442, 442, 443, 444, 444, 445, 445, 445, 446, 446, 447, 447, 447, 448, 449, 450, 450, 451, 452, 453, 454, 454, 454, 455, 455, 455, 456, 456, 456, 457, 457, 457, 458, 458, 458, 459, 459, 460, 460, 461, 461, 461, 462, 462, 462, 463, 464, 130, 128, 414, 6, 409, 463, 1, 3, 341, 345, 14, 315, 122, 315, 370, 44, 73, 177, 4, 134, 144, 40, 121, 172, 175, 74, 139, 199, 88, 44, 45, 241, 47, 75, 173, 187, 230, 392, 26, 56, 144, 169, 170, 235, 64, 374, 24, 316, 326, 360, 24, 25, 269, 268, 281, 328, 21, 22, 25, 279, 22, 24, 326, 18, 28, 201, 407, 26, 56, 163, 118, 200, 204, 407, 32, 262, 270, 31, 271, 366, 35, 287, 305, 58, 206, 215, 33, 36, 37, 35, 314, 421, 35, 171, 322, 39, 418, 421, 38, 308, 442, 12, 188, 192, 416, 418, 43, 444, 445, 42, 428, 429, 430, 9, 15, 222, 15, 69, 90, 286, 438, 439, 16, 162, 172, 286, 410, 441, 215, 217, 223, 274, 52, 369, 440, 59, 164, 259, 50, 286, 410, 438, 382, 383, 394, 55, 188, 194, 54, 217, 220, 222, 18, 28, 255, 162, 201, 240, 34, 202, 204, 209, 51, 60, 234, 59, 20, 76, 90, 98, 20, 98, 66, 327, 65, 166, 185, 68, 462, 461, 45, 73, 84, 93, 75, 161, 9, 69, 374, 13, 138, 173, 16, 71, 169, 236, 62, 413, 231, 449, 313, 457, 128, 245, 96, 431, 83, 431, 82, 424, 93, 89, 157, 92, 321, 97, 415, 71, 86, 45, 63, 61, 93, 448, 135, 84, 91, 458, 460, 272, 453, 459, 81, 97, 245, 87, 96, 245, 63, 64, 100, 297, 99, 102, 101, 103, 404, 102, 104, 368, 103, 105, 367, 104, 106, 107, 105, 105, 368, 402, 412, 413, 110, 412, 109, 437, 440, 112, 113, 226, 111, 114, 218, 111, 114, 213, 112, 113, 208, 117, 120, 192, 118, 175, 181, 115, 119, 206, 29, 116, 197, 117, 120, 197, 202, 115, 119, 181, 12, 200, 289, 8, 127, 331, 331, 335, 379, 127, 379, 126, 447, 125, 377, 122, 124, 378, 2, 80, 345, 132, 141, 142, 10, 137, 337, 343, 349, 133, 136, 10, 132, 135, 233, 134, 330, 137, 210, 133, 136, 74, 139, 174, 13, 138, 288, 141, 207, 401, 129, 140, 302, 129, 210, 144, 233, 240, 11, 18, 143, 305, 320, 325, 171, 284, 311, 307, 359, 383, 207, 390, 304, 422, 434, 151, 152, 304, 150, 426, 427, 150, 303, 433, 154, 362, 153, 324, 394, 364, 382, 390, 364, 400, 401, 85, 263, 375, 396, 160, 244, 14, 236, 47, 57, 190, 236, 28, 164, 190, 194, 51, 163, 220, 323, 67, 167, 166, 189, 278, 454, 89, 157, 19, 75, 237, 19, 179, 193, 37, 146, 320, 12, 47, 173, 190, 16, 74, 172, 138, 184, 289, 12, 116, 192, 264, 273, 9, 178, 234, 177, 260, 170, 193, 292, 182, 290, 417, 116, 120, 197, 180, 416, 420, 186, 420, 437, 174, 288, 289, 443, 452, 183, 265, 17, 191, 275, 40, 54, 217, 66, 167, 162, 163, 172, 201, 187, 225, 274, 40, 115, 175, 170, 179, 291, 54, 163, 220, 248, 446, 198, 203, 232, 118, 119, 181, 204, 196, 205, 13, 209, 224, 29, 121, 288, 26, 57, 190, 58, 119, 206, 196, 205, 291, 29, 58, 197, 198, 203, 211, 34, 117, 202, 140, 142, 114, 213, 224, 58, 199, 215, 223, 403, 205, 223, 230, 294, 113, 208, 294, 265, 290, 34, 49, 209, 195, 251, 49, 55, 188, 239, 112, 226, 227, 216, 444, 55, 164, 194, 243, 348, 408, 44, 55, 234, 49, 209, 212, 275, 199, 208, 294, 191, 242, 393, 111, 218, 293, 218, 228, 293, 227, 238, 442, 17, 212, 293, 371, 196, 235, 292, 143, 321, 59, 177, 222, 19, 232, 237, 75, 161, 162, 240, 169, 235, 228, 392, 217, 241, 393, 57, 143, 236, 15, 239, 225, 392, 99, 221, 77, 80, 96, 97, 78, 195, 248, 346, 247, 250, 249, 250, 216, 251, 254, 255, 257, 11, 253, 56, 253, 256, 255, 253, 258, 259, 257, 51, 257, 260, 254, 259, 270, 404, 405, 31, 366, 407, 435, 176, 329, 384, 186, 214, 267, 314, 442, 266, 268, 312, 23, 267, 269, 22, 268, 31, 261, 271, 32, 270, 405, 95, 276, 301, 276, 277, 49, 191, 275, 187, 223, 274, 272, 273, 278, 189, 278, 167, 276, 277, 24, 280, 281, 279, 283, 316, 23, 279, 282, 281, 283, 328, 280, 282, 284, 146, 283, 319, 298, 403, 404, 46, 48, 52, 33, 425, 428, 139, 184, 200, 121, 174, 184, 180, 214, 193, 203, 292, 179, 232, 291, 226, 227, 230, 212, 213, 224, 296, 298, 302, 295, 298, 302, 368, 299, 285, 295, 296, 219, 303, 272, 141, 295, 296, 152, 300, 434, 149, 150, 423, 33, 145, 311, 320, 147, 329, 360, 39, 310, 417, 311, 317, 319, 308, 146, 305, 309, 267, 79, 456, 461, 36, 266, 322, 8, 165, 21, 280, 319, 309, 325, 329, 377, 450, 284, 309, 316, 145, 171, 306, 72, 168, 37, 314, 328, 86, 92, 154, 326, 145, 317, 327, 21, 25, 324, 361, 264, 325, 23, 282, 322, 264, 307, 317, 332, 358, 122, 123, 334, 347, 334, 332, 333, 337, 123, 338, 338, 131, 334, 349, 335, 336, 341, 341, 343, 6, 338, 339, 344, 131, 340, 344, 352, 342, 343, 345, 354, 6, 128, 344, 221, 348, 349, 351, 221, 408, 131, 337, 347, 350, 349, 351, 352, 350, 353, 343, 350, 353, 354, 352, 355, 344, 352, 355, 356, 354, 356, 87, 354, 358, 331, 357, 147, 360, 361, 21, 307, 359, 326, 359, 153, 363, 380, 362, 382, 394, 155, 156, 380, 85, 451, 32, 262, 104, 376, 103, 107, 296, 50, 410, 412, 8, 372, 377, 447, 246, 7, 370, 243, 464, 73, 178, 158, 376, 399, 400, 367, 375, 126, 318, 370, 127, 447, 123, 124, 362, 364, 395, 148, 386, 53, 155, 363, 387, 53, 147, 388, 381, 385, 384, 386, 388, 381, 385, 389, 382, 388, 389, 383, 385, 387, 386, 387, 390, 148, 155, 389, 402, 17, 238, 242, 225, 239, 53, 154, 363, 380, 397, 399, 158, 398, 395, 398, 396, 397, 399, 375, 395, 398, 156, 375, 401, 140, 156, 400, 402, 107, 391, 401, 285, 365, 102, 261, 285, 261, 271, 406, 405, 27, 30, 262, 464, 3, 411, 48, 52, 369, 409, 414, 108, 109, 369, 108, 432, 446, 2, 411, 424, 431, 41, 182, 417, 180, 308, 416, 38, 41, 422, 420, 434, 439, 182, 183, 419, 36, 38, 425, 149, 418, 423, 304, 422, 426, 83, 159, 287, 421, 426, 151, 423, 425, 151, 428, 430, 43, 287, 427, 43, 452, 43, 427, 433, 81, 82, 415, 219, 441, 152, 430, 436, 149, 303, 419, 5, 433, 439, 445, 110, 183, 46, 52, 440, 46, 419, 436, 50, 110, 438, 48, 432, 445, 39, 229, 266, 252, 42, 429, 42, 436, 441, 62, 413, 125, 370, 378, 91, 70, 318, 372, 365, 65, 95, 167, 455, 458, 454, 456, 462, 313, 455, 457, 79, 456, 458, 94, 454, 457, 95, 460, 94, 459, 68, 313, 462, 67, 455, 461, 176, 373];
ends = [130, 128, 414, 6, 409, 463, 1, 3, 341, 345, 14, 315, 122, 315, 370, 44, 73, 177, 4, 134, 144, 40, 121, 172, 175, 74, 139, 199, 88, 44, 45, 241, 47, 75, 173, 187, 230, 392, 26, 56, 144, 169, 170, 235, 64, 374, 24, 316, 326, 360, 24, 25, 269, 268, 281, 328, 21, 22, 25, 279, 22, 24, 326, 18, 28, 201, 407, 26, 56, 163, 118, 200, 204, 407, 32, 262, 270, 31, 271, 366, 35, 287, 305, 58, 206, 215, 33, 36, 37, 35, 314, 421, 35, 171, 322, 39, 418, 421, 38, 308, 442, 12, 188, 192, 416, 418, 43, 444, 445, 42, 428, 429, 430, 9, 15, 222, 15, 69, 90, 286, 438, 439, 16, 162, 172, 286, 410, 441, 215, 217, 223, 274, 52, 369, 440, 59, 164, 259, 50, 286, 410, 438, 382, 383, 394, 55, 188, 194, 54, 217, 220, 222, 18, 28, 255, 162, 201, 240, 34, 202, 204, 209, 51, 60, 234, 59, 20, 76, 90, 98, 20, 98, 66, 327, 65, 166, 185, 68, 462, 461, 45, 73, 84, 93, 75, 161, 9, 69, 374, 13, 138, 173, 16, 71, 169, 236, 62, 413, 231, 449, 313, 457, 128, 245, 96, 431, 83, 431, 82, 424, 93, 89, 157, 92, 321, 97, 415, 71, 86, 45, 63, 61, 93, 448, 135, 84, 91, 458, 460, 272, 453, 459, 81, 97, 245, 87, 96, 245, 63, 64, 100, 297, 99, 102, 101, 103, 404, 102, 104, 368, 103, 105, 367, 104, 106, 107, 105, 105, 368, 402, 412, 413, 110, 412, 109, 437, 440, 112, 113, 226, 111, 114, 218, 111, 114, 213, 112, 113, 208, 117, 120, 192, 118, 175, 181, 115, 119, 206, 29, 116, 197, 117, 120, 197, 202, 115, 119, 181, 12, 200, 289, 8, 127, 331, 331, 335, 379, 127, 379, 126, 447, 125, 377, 122, 124, 378, 2, 80, 345, 132, 141, 142, 10, 137, 337, 343, 349, 133, 136, 10, 132, 135, 233, 134, 330, 137, 210, 133, 136, 74, 139, 174, 13, 138, 288, 141, 207, 401, 129, 140, 302, 129, 210, 144, 233, 240, 11, 18, 143, 305, 320, 325, 171, 284, 311, 307, 359, 383, 207, 390, 304, 422, 434, 151, 152, 304, 150, 426, 427, 150, 303, 433, 154, 362, 153, 324, 394, 364, 382, 390, 364, 400, 401, 85, 263, 375, 396, 160, 244, 14, 236, 47, 57, 190, 236, 28, 164, 190, 194, 51, 163, 220, 323, 67, 167, 166, 189, 278, 454, 89, 157, 19, 75, 237, 19, 179, 193, 37, 146, 320, 12, 47, 173, 190, 16, 74, 172, 138, 184, 289, 12, 116, 192, 264, 273, 9, 178, 234, 177, 260, 170, 193, 292, 182, 290, 417, 116, 120, 197, 180, 416, 420, 186, 420, 437, 174, 288, 289, 443, 452, 183, 265, 17, 191, 275, 40, 54, 217, 66, 167, 162, 163, 172, 201, 187, 225, 274, 40, 115, 175, 170, 179, 291, 54, 163, 220, 248, 446, 198, 203, 232, 118, 119, 181, 204, 196, 205, 13, 209, 224, 29, 121, 288, 26, 57, 190, 58, 119, 206, 196, 205, 291, 29, 58, 197, 198, 203, 211, 34, 117, 202, 140, 142, 114, 213, 224, 58, 199, 215, 223, 403, 205, 223, 230, 294, 113, 208, 294, 265, 290, 34, 49, 209, 195, 251, 49, 55, 188, 239, 112, 226, 227, 216, 444, 55, 164, 194, 243, 348, 408, 44, 55, 234, 49, 209, 212, 275, 199, 208, 294, 191, 242, 393, 111, 218, 293, 218, 228, 293, 227, 238, 442, 17, 212, 293, 371, 196, 235, 292, 143, 321, 59, 177, 222, 19, 232, 237, 75, 161, 162, 240, 169, 235, 228, 392, 217, 241, 393, 57, 143, 236, 15, 239, 225, 392, 99, 221, 77, 80, 96, 97, 78, 195, 248, 346, 247, 250, 249, 250, 216, 251, 254, 255, 257, 11, 253, 56, 253, 256, 255, 253, 258, 259, 257, 51, 257, 260, 254, 259, 270, 404, 405, 31, 366, 407, 435, 176, 329, 384, 186, 214, 267, 314, 442, 266, 268, 312, 23, 267, 269, 22, 268, 31, 261, 271, 32, 270, 405, 95, 276, 301, 276, 277, 49, 191, 275, 187, 223, 274, 272, 273, 278, 189, 278, 167, 276, 277, 24, 280, 281, 279, 283, 316, 23, 279, 282, 281, 283, 328, 280, 282, 284, 146, 283, 319, 298, 403, 404, 46, 48, 52, 33, 425, 428, 139, 184, 200, 121, 174, 184, 180, 214, 193, 203, 292, 179, 232, 291, 226, 227, 230, 212, 213, 224, 296, 298, 302, 295, 298, 302, 368, 299, 285, 295, 296, 219, 303, 272, 141, 295, 296, 152, 300, 434, 149, 150, 423, 33, 145, 311, 320, 147, 329, 360, 39, 310, 417, 311, 317, 319, 308, 146, 305, 309, 267, 79, 456, 461, 36, 266, 322, 8, 165, 21, 280, 319, 309, 325, 329, 377, 450, 284, 309, 316, 145, 171, 306, 72, 168, 37, 314, 328, 86, 92, 154, 326, 145, 317, 327, 21, 25, 324, 361, 264, 325, 23, 282, 322, 264, 307, 317, 332, 358, 122, 123, 334, 347, 334, 332, 333, 337, 123, 338, 338, 131, 334, 349, 335, 336, 341, 341, 343, 6, 338, 339, 344, 131, 340, 344, 352, 342, 343, 345, 354, 6, 128, 344, 221, 348, 349, 351, 221, 408, 131, 337, 347, 350, 349, 351, 352, 350, 353, 343, 350, 353, 354, 352, 355, 344, 352, 355, 356, 354, 356, 87, 354, 358, 331, 357, 147, 360, 361, 21, 307, 359, 326, 359, 153, 363, 380, 362, 382, 394, 155, 156, 380, 85, 451, 32, 262, 104, 376, 103, 107, 296, 50, 410, 412, 8, 372, 377, 447, 246, 7, 370, 243, 464, 73, 178, 158, 376, 399, 400, 367, 375, 126, 318, 370, 127, 447, 123, 124, 362, 364, 395, 148, 386, 53, 155, 363, 387, 53, 147, 388, 381, 385, 384, 386, 388, 381, 385, 389, 382, 388, 389, 383, 385, 387, 386, 387, 390, 148, 155, 389, 402, 17, 238, 242, 225, 239, 53, 154, 363, 380, 397, 399, 158, 398, 395, 398, 396, 397, 399, 375, 395, 398, 156, 375, 401, 140, 156, 400, 402, 107, 391, 401, 285, 365, 102, 261, 285, 261, 271, 406, 405, 27, 30, 262, 464, 3, 411, 48, 52, 369, 409, 414, 108, 109, 369, 108, 432, 446, 2, 411, 424, 431, 41, 182, 417, 180, 308, 416, 38, 41, 422, 420, 434, 439, 182, 183, 419, 36, 38, 425, 149, 418, 423, 304, 422, 426, 83, 159, 287, 421, 426, 151, 423, 425, 151, 428, 430, 43, 287, 427, 43, 452, 43, 427, 433, 81, 82, 415, 219, 441, 152, 430, 436, 149, 303, 419, 5, 433, 439, 445, 110, 183, 46, 52, 440, 46, 419, 436, 50, 110, 438, 48, 432, 445, 39, 229, 266, 252, 42, 429, 42, 436, 441, 62, 413, 125, 370, 378, 91, 70, 318, 372, 365, 65, 95, 167, 455, 458, 454, 456, 462, 313, 455, 457, 79, 456, 458, 94, 454, 457, 95, 460, 94, 459, 68, 313, 462, 67, 455, 461, 176, 373, 1, 2, 2, 3, 3, 4, 5, 6, 6, 6, 7, 7, 8, 8, 8, 9, 9, 9, 10, 11, 11, 12, 12, 12, 12, 13, 13, 13, 14, 15, 15, 15, 16, 16, 16, 17, 17, 17, 18, 18, 18, 19, 19, 19, 20, 20, 21, 21, 21, 21, 22, 22, 22, 23, 23, 23, 24, 24, 24, 24, 25, 25, 25, 26, 26, 26, 27, 28, 28, 28, 29, 29, 29, 30, 31, 31, 31, 32, 32, 32, 33, 33, 33, 34, 34, 34, 35, 35, 35, 36, 36, 36, 37, 37, 37, 38, 38, 38, 39, 39, 39, 40, 40, 40, 41, 41, 42, 42, 42, 43, 43, 43, 43, 44, 44, 44, 45, 45, 45, 46, 46, 46, 47, 47, 47, 48, 48, 48, 49, 49, 49, 49, 50, 50, 50, 51, 51, 51, 52, 52, 52, 52, 53, 53, 53, 54, 54, 54, 55, 55, 55, 55, 56, 56, 56, 57, 57, 57, 58, 58, 58, 58, 59, 59, 59, 60, 61, 62, 63, 63, 64, 64, 65, 65, 66, 66, 66, 67, 67, 68, 69, 69, 70, 70, 71, 72, 73, 73, 73, 74, 74, 74, 75, 75, 75, 75, 76, 76, 77, 78, 79, 79, 80, 80, 81, 81, 82, 82, 83, 83, 84, 85, 85, 86, 86, 87, 87, 88, 89, 90, 90, 91, 91, 91, 92, 93, 93, 94, 94, 95, 95, 95, 96, 96, 96, 97, 97, 97, 98, 98, 99, 99, 100, 101, 102, 102, 102, 103, 103, 103, 104, 104, 104, 105, 105, 105, 106, 107, 107, 107, 108, 108, 109, 109, 110, 110, 110, 111, 111, 111, 112, 112, 112, 113, 113, 113, 114, 114, 114, 115, 115, 115, 116, 116, 116, 117, 117, 117, 118, 118, 118, 119, 119, 119, 119, 120, 120, 120, 121, 121, 121, 122, 122, 122, 123, 123, 123, 124, 124, 125, 125, 126, 126, 127, 127, 127, 128, 128, 128, 129, 129, 129, 130, 130, 131, 131, 131, 132, 132, 133, 133, 134, 134, 135, 135, 136, 136, 137, 137, 138, 138, 138, 139, 139, 139, 140, 140, 140, 141, 141, 141, 142, 142, 143, 143, 143, 144, 144, 144, 145, 145, 145, 146, 146, 146, 147, 147, 147, 148, 148, 149, 149, 149, 150, 150, 150, 151, 151, 151, 152, 152, 152, 153, 153, 154, 154, 154, 155, 155, 155, 156, 156, 156, 157, 157, 158, 158, 159, 160, 161, 161, 162, 162, 162, 162, 163, 163, 163, 163, 164, 164, 164, 165, 166, 166, 167, 167, 167, 167, 168, 168, 169, 169, 169, 170, 170, 170, 171, 171, 171, 172, 172, 172, 172, 173, 173, 173, 174, 174, 174, 175, 175, 175, 176, 176, 177, 177, 177, 178, 178, 179, 179, 179, 180, 180, 180, 181, 181, 181, 182, 182, 182, 183, 183, 183, 184, 184, 184, 185, 185, 186, 186, 187, 187, 187, 188, 188, 188, 189, 189, 190, 190, 190, 190, 191, 191, 191, 192, 192, 192, 193, 193, 193, 194, 194, 194, 195, 195, 196, 196, 196, 197, 197, 197, 197, 198, 198, 199, 199, 199, 200, 200, 200, 201, 201, 201, 202, 202, 202, 203, 203, 203, 204, 204, 204, 205, 205, 205, 206, 206, 206, 207, 207, 208, 208, 208, 209, 209, 209, 209, 210, 211, 212, 212, 212, 213, 213, 213, 214, 214, 215, 215, 215, 216, 216, 217, 217, 217, 217, 218, 218, 218, 219, 219, 220, 220, 220, 221, 221, 221, 222, 222, 222, 223, 223, 223, 223, 224, 224, 224, 225, 225, 225, 226, 226, 226, 227, 227, 227, 228, 228, 229, 230, 230, 230, 231, 232, 232, 232, 233, 233, 234, 234, 234, 235, 235, 235, 236, 236, 236, 236, 237, 237, 238, 238, 239, 239, 239, 240, 240, 240, 241, 241, 242, 242, 243, 243, 244, 245, 245, 245, 246, 247, 247, 248, 249, 249, 250, 251, 252, 252, 253, 253, 253, 254, 254, 255, 255, 255, 256, 257, 257, 257, 258, 259, 259, 259, 260, 260, 261, 261, 261, 262, 262, 262, 263, 264, 264, 264, 265, 265, 266, 266, 266, 267, 267, 267, 268, 268, 268, 269, 269, 270, 270, 270, 271, 271, 271, 272, 272, 272, 273, 273, 274, 274, 274, 275, 275, 275, 276, 276, 276, 277, 277, 278, 278, 278, 279, 279, 279, 280, 280, 280, 281, 281, 281, 282, 282, 282, 283, 283, 283, 284, 284, 284, 285, 285, 285, 286, 286, 286, 287, 287, 287, 288, 288, 288, 289, 289, 289, 290, 290, 291, 291, 291, 292, 292, 292, 293, 293, 293, 294, 294, 294, 295, 295, 295, 296, 296, 296, 296, 297, 298, 298, 298, 299, 300, 301, 302, 302, 302, 303, 303, 303, 304, 304, 304, 305, 305, 305, 306, 307, 307, 307, 308, 308, 308, 309, 309, 309, 310, 311, 311, 311, 312, 313, 313, 313, 314, 314, 314, 315, 315, 316, 316, 316, 317, 317, 317, 318, 318, 319, 319, 319, 320, 320, 320, 321, 321, 322, 322, 322, 323, 323, 324, 324, 325, 325, 325, 326, 326, 326, 326, 327, 327, 328, 328, 328, 329, 329, 329, 330, 330, 331, 331, 332, 332, 333, 334, 334, 334, 335, 335, 336, 337, 337, 337, 338, 338, 338, 339, 340, 341, 341, 341, 342, 343, 343, 343, 343, 344, 344, 344, 344, 345, 345, 345, 346, 346, 347, 347, 348, 348, 349, 349, 349, 349, 350, 350, 350, 351, 351, 352, 352, 352, 352, 353, 353, 354, 354, 354, 354, 355, 355, 356, 356, 357, 358, 358, 359, 359, 359, 360, 360, 360, 361, 361, 362, 362, 362, 363, 363, 363, 364, 364, 364, 365, 365, 366, 366, 367, 367, 368, 368, 368, 369, 369, 369, 370, 370, 370, 370, 371, 372, 372, 373, 373, 374, 374, 375, 375, 375, 375, 376, 376, 377, 377, 377, 378, 378, 379, 379, 380, 380, 380, 381, 381, 382, 382, 382, 382, 383, 383, 383, 384, 384, 385, 385, 385, 386, 386, 386, 387, 387, 387, 388, 388, 388, 389, 389, 389, 390, 390, 390, 391, 392, 392, 392, 393, 393, 394, 394, 394, 395, 395, 395, 396, 396, 397, 397, 398, 398, 398, 399, 399, 399, 400, 400, 400, 401, 401, 401, 401, 402, 402, 402, 403, 403, 404, 404, 404, 405, 405, 405, 406, 407, 407, 407, 408, 409, 409, 410, 410, 410, 411, 411, 412, 412, 412, 413, 413, 413, 414, 414, 415, 415, 416, 416, 416, 417, 417, 417, 418, 418, 418, 419, 419, 419, 420, 420, 420, 421, 421, 421, 422, 422, 422, 423, 423, 423, 424, 424, 425, 425, 425, 426, 426, 426, 427, 427, 427, 428, 428, 428, 429, 429, 430, 430, 430, 431, 431, 431, 432, 432, 433, 433, 433, 434, 434, 434, 435, 436, 436, 436, 437, 437, 438, 438, 438, 439, 439, 439, 440, 440, 440, 441, 441, 441, 442, 442, 442, 443, 444, 444, 445, 445, 445, 446, 446, 447, 447, 447, 448, 449, 450, 450, 451, 452, 453, 454, 454, 454, 455, 455, 455, 456, 456, 456, 457, 457, 457, 458, 458, 458, 459, 459, 460, 460, 461, 461, 461, 462, 462, 462, 463, 464];
weights = [93, 47, 6, 21, 38, 95, 90, 21, 12, 63, 744, 71, 31, 12, 133, 121, 98, 24, 134, 216, 43, 148, 25, 31, 27, 129, 24, 23, 216, 134, 83, 16, 160, 71, 28, 27, 26, 52, 123, 50, 27, 18, 23, 218, 39, 54, 39, 36, 49, 149, 44, 90, 76, 45, 17, 40, 39, 44, 47, 118, 90, 47, 38, 123, 22, 37, 28, 22, 127, 136, 57, 27, 31, 38, 58, 28, 29, 58, 29, 31, 152, 42, 91, 89, 35, 25, 152, 40, 33, 40, 38, 29, 33, 27, 33, 193, 26, 39, 193, 6, 37, 148, 33, 31, 36, 28, 168, 32, 32, 168, 151, 36, 27, 121, 134, 32, 83, 31, 74, 59, 9, 50, 160, 263, 24, 31, 30, 32, 32, 32, 89, 99, 124, 87, 29, 5, 69, 25, 124, 30, 28, 24, 151, 9, 176, 248, 23, 33, 248, 24, 33, 23, 50, 127, 22, 159, 23, 52, 89, 32, 26, 25, 5, 134, 19, 134, 137, 7, 30, 29, 39, 28, 9, 190, 9, 51, 7, 150, 76, 33, 31, 23, 31, 23, 13, 150, 98, 23, 189, 129, 23, 28, 71, 13, 97, 441, 7, 136, 94, 23, 106, 43, 34, 17, 6, 15, 20, 8, 20, 210, 20, 36, 14, 28, 19, 66, 17, 23, 41, 74, 30, 109, 13, 7, 4, 20, 13, 32, 35, 51, 16, 11, 6, 153, 28, 66, 153, 165, 29, 28, 17, 46, 17, 134, 134, 39, 26, 39, 46, 39, 46, 111, 131, 111, 37, 37, 37, 37, 78, 32, 38, 28, 114, 95, 114, 38, 21, 86, 54, 28, 86, 53, 23, 54, 91, 21, 53, 91, 26, 73, 93, 23, 72, 26, 32, 73, 93, 25, 57, 72, 30, 93, 72, 23, 26, 93, 72, 22, 25, 180, 28, 31, 97, 9, 31, 5, 82, 38, 30, 42, 6, 42, 41, 97, 38, 21, 47, 34, 17, 58, 16, 13, 221, 109, 23, 32, 15, 45, 53, 79, 45, 13, 20, 13, 28, 44, 100, 53, 44, 23, 143, 24, 24, 143, 20, 21, 28, 127, 16, 21, 85, 13, 214, 235, 35, 28, 43, 27, 235, 34, 60, 90, 60, 22, 105, 37, 5, 53, 254, 80, 50, 27, 45, 50, 51, 72, 50, 65, 66, 51, 95, 65, 88, 173, 88, 11, 119, 72, 51, 81, 76, 87, 43, 14, 40, 43, 6, 23, 96, 209, 10, 263, 159, 23, 52, 136, 249, 26, 26, 69, 249, 33, 13, 52, 201, 201, 52, 19, 49, 23, 30, 18, 97, 244, 23, 141, 123, 27, 60, 164, 31, 24, 154, 263, 28, 28, 154, 24, 94, 42, 27, 26, 148, 10, 35, 24, 159, 9, 159, 59, 141, 101, 43, 131, 16, 39, 32, 22, 72, 131, 45, 108, 95, 46, 18, 94, 63, 109, 110, 9, 95, 100, 27, 90, 31, 33, 23, 247, 201, 52, 23, 26, 263, 159, 90, 28, 33, 31, 23, 148, 123, 101, 49, 33, 26, 248, 20, 194, 29, 112, 24, 30, 23, 72, 57, 29, 113, 23, 153, 29, 27, 180, 26, 37, 23, 159, 32, 26, 91, 112, 29, 34, 31, 26, 57, 113, 29, 29, 35, 25, 91, 28, 20, 26, 94, 30, 25, 153, 89, 32, 109, 29, 29, 161, 24, 21, 94, 28, 38, 12, 25, 32, 89, 9, 25, 32, 24, 247, 174, 23, 83, 31, 10, 137, 33, 33, 248, 7, 30, 21, 32, 23, 130, 89, 32, 29, 101, 29, 30, 97, 28, 13, 18, 28, 83, 29, 31, 29, 80, 29, 185, 48, 26, 161, 27, 60, 24, 21, 6, 35, 15, 19, 9, 130, 218, 21, 24, 441, 10, 52, 158, 244, 24, 185, 34, 174, 20, 13, 52, 28, 158, 16, 20, 13, 23, 159, 7, 26, 17, 28, 165, 42, 21, 29, 272, 65, 9, 9, 57, 25, 32, 132, 32, 30, 50, 132, 22, 32, 106, 106, 30, 117, 27, 117, 25, 27, 145, 64, 145, 46, 43, 87, 28, 58, 37, 36, 10, 88, 59, 100, 38, 36, 125, 5, 36, 95, 61, 45, 95, 120, 76, 120, 29, 46, 59, 29, 59, 15, 51, 70, 36, 53, 71, 99, 33, 90, 31, 101, 90, 70, 53, 73, 20, 52, 19, 73, 52, 118, 38, 62, 38, 50, 81, 17, 62, 40, 40, 12, 16, 50, 12, 59, 22, 59, 131, 153, 18, 184, 59, 31, 30, 42, 65, 65, 20, 63, 26, 28, 42, 109, 16, 12, 49, 34, 109, 43, 6, 109, 29, 80, 27, 24, 28, 97, 55, 62, 18, 55, 108, 112, 40, 10, 153, 62, 108, 129, 147, 36, 85, 18, 112, 95, 147, 25, 50, 72, 27, 91, 34, 27, 40, 37, 39, 92, 6, 49, 18, 156, 65, 104, 49, 105, 27, 156, 61, 106, 41, 40, 38, 125, 74, 12, 177, 36, 81, 61, 65, 67, 78, 26, 19, 131, 104, 61, 60, 164, 40, 67, 41, 33, 74, 53, 40, 51, 11, 100, 90, 67, 92, 49, 38, 100, 51, 137, 92, 40, 16, 53, 88, 39, 78, 73, 151, 9, 31, 92, 77, 54, 92, 54, 41, 5, 36, 57, 23, 41, 18, 36, 57, 27, 45, 39, 12, 27, 45, 42, 32, 39, 32, 37, 42, 32, 41, 56, 63, 17, 41, 40, 48, 116, 20, 30, 39, 15, 18, 116, 13, 13, 124, 18, 124, 22, 37, 18, 134, 14, 134, 17, 56, 14, 141, 172, 141, 21, 45, 172, 38, 83, 38, 5, 51, 98, 149, 92, 51, 51, 98, 173, 81, 23, 81, 97, 24, 72, 76, 136, 234, 81, 31, 58, 131, 47, 39, 78, 40, 87, 58, 56, 133, 17, 53, 31, 54, 60, 17, 51, 8, 189, 113, 43, 89, 31, 82, 47, 89, 41, 26, 53, 21, 26, 82, 30, 23, 136, 91, 57, 58, 151, 51, 97, 49, 9, 53, 49, 160, 63, 63, 160, 52, 58, 160, 22, 49, 159, 31, 49, 52, 159, 22, 31, 49, 80, 81, 49, 87, 52, 34, 23, 18, 13, 176, 119, 24, 91, 52, 30, 6, 32, 52, 29, 32, 29, 51, 31, 30, 51, 87, 82, 86, 127, 43, 86, 25, 32, 87, 25, 18, 50, 26, 43, 184, 87, 15, 39, 39, 28, 38, 37, 32, 38, 29, 30, 28, 58, 29, 20, 38, 95, 56, 28, 117, 7, 6, 20, 16, 217, 36, 45, 128, 39, 18, 128, 26, 28, 25, 63, 58, 126, 108, 46, 63, 29, 39, 54, 27, 25, 52, 27, 52, 28, 210, 17, 65, 54, 63, 65, 28, 63, 66, 67, 55, 151, 65, 67, 36, 150, 27, 55, 45, 15, 8, 217, 67, 104, 65, 45, 57, 45, 25, 58, 136, 57, 59, 64, 38, 18, 9, 24, 127, 50, 126, 59, 29, 21, 127, 32, 104, 47, 37, 48, 5, 319, 32, 169, 32, 64, 47, 137, 7, 6, 31, 26, 7, 4, 19, 79, 81, 7, 16, 49, 84, 30, 84, 104, 40, 41, 104, 105, 43, 105, 98, 32, 30, 98, 11, 55, 35, 55, 33, 40, 142, 76, 40, 142, 316, 8, 93, 47, 6, 21, 38, 95, 90, 21, 12, 63, 744, 71, 31, 12, 133, 121, 98, 24, 134, 216, 43, 148, 25, 31, 27, 129, 24, 23, 216, 134, 83, 16, 160, 71, 28, 27, 26, 52, 123, 50, 27, 18, 23, 218, 39, 54, 39, 36, 49, 149, 44, 90, 76, 45, 17, 40, 39, 44, 47, 118, 90, 47, 38, 123, 22, 37, 28, 22, 127, 136, 57, 27, 31, 38, 58, 28, 29, 58, 29, 31, 152, 42, 91, 89, 35, 25, 152, 40, 33, 40, 38, 29, 33, 27, 33, 193, 26, 39, 193, 6, 37, 148, 33, 31, 36, 28, 168, 32, 32, 168, 151, 36, 27, 121, 134, 32, 83, 31, 74, 59, 9, 50, 160, 263, 24, 31, 30, 32, 32, 32, 89, 99, 124, 87, 29, 5, 69, 25, 124, 30, 28, 24, 151, 9, 176, 248, 23, 33, 248, 24, 33, 23, 50, 127, 22, 159, 23, 52, 89, 32, 26, 25, 5, 134, 19, 134, 137, 7, 30, 29, 39, 28, 9, 190, 9, 51, 7, 150, 76, 33, 31, 23, 31, 23, 13, 150, 98, 23, 189, 129, 23, 28, 71, 13, 97, 441, 7, 136, 94, 23, 106, 43, 34, 17, 6, 15, 20, 8, 20, 210, 20, 36, 14, 28, 19, 66, 17, 23, 41, 74, 30, 109, 13, 7, 4, 20, 13, 32, 35, 51, 16, 11, 6, 153, 28, 66, 153, 165, 29, 28, 17, 46, 17, 134, 134, 39, 26, 39, 46, 39, 46, 111, 131, 111, 37, 37, 37, 37, 78, 32, 38, 28, 114, 95, 114, 38, 21, 86, 54, 28, 86, 53, 23, 54, 91, 21, 53, 91, 26, 73, 93, 23, 72, 26, 32, 73, 93, 25, 57, 72, 30, 93, 72, 23, 26, 93, 72, 22, 25, 180, 28, 31, 97, 9, 31, 5, 82, 38, 30, 42, 6, 42, 41, 97, 38, 21, 47, 34, 17, 58, 16, 13, 221, 109, 23, 32, 15, 45, 53, 79, 45, 13, 20, 13, 28, 44, 100, 53, 44, 23, 143, 24, 24, 143, 20, 21, 28, 127, 16, 21, 85, 13, 214, 235, 35, 28, 43, 27, 235, 34, 60, 90, 60, 22, 105, 37, 5, 53, 254, 80, 50, 27, 45, 50, 51, 72, 50, 65, 66, 51, 95, 65, 88, 173, 88, 11, 119, 72, 51, 81, 76, 87, 43, 14, 40, 43, 6, 23, 96, 209, 10, 263, 159, 23, 52, 136, 249, 26, 26, 69, 249, 33, 13, 52, 201, 201, 52, 19, 49, 23, 30, 18, 97, 244, 23, 141, 123, 27, 60, 164, 31, 24, 154, 263, 28, 28, 154, 24, 94, 42, 27, 26, 148, 10, 35, 24, 159, 9, 159, 59, 141, 101, 43, 131, 16, 39, 32, 22, 72, 131, 45, 108, 95, 46, 18, 94, 63, 109, 110, 9, 95, 100, 27, 90, 31, 33, 23, 247, 201, 52, 23, 26, 263, 159, 90, 28, 33, 31, 23, 148, 123, 101, 49, 33, 26, 248, 20, 194, 29, 112, 24, 30, 23, 72, 57, 29, 113, 23, 153, 29, 27, 180, 26, 37, 23, 159, 32, 26, 91, 112, 29, 34, 31, 26, 57, 113, 29, 29, 35, 25, 91, 28, 20, 26, 94, 30, 25, 153, 89, 32, 109, 29, 29, 161, 24, 21, 94, 28, 38, 12, 25, 32, 89, 9, 25, 32, 24, 247, 174, 23, 83, 31, 10, 137, 33, 33, 248, 7, 30, 21, 32, 23, 130, 89, 32, 29, 101, 29, 30, 97, 28, 13, 18, 28, 83, 29, 31, 29, 80, 29, 185, 48, 26, 161, 27, 60, 24, 21, 6, 35, 15, 19, 9, 130, 218, 21, 24, 441, 10, 52, 158, 244, 24, 185, 34, 174, 20, 13, 52, 28, 158, 16, 20, 13, 23, 159, 7, 26, 17, 28, 165, 42, 21, 29, 272, 65, 9, 9, 57, 25, 32, 132, 32, 30, 50, 132, 22, 32, 106, 106, 30, 117, 27, 117, 25, 27, 145, 64, 145, 46, 43, 87, 28, 58, 37, 36, 10, 88, 59, 100, 38, 36, 125, 5, 36, 95, 61, 45, 95, 120, 76, 120, 29, 46, 59, 29, 59, 15, 51, 70, 36, 53, 71, 99, 33, 90, 31, 101, 90, 70, 53, 73, 20, 52, 19, 73, 52, 118, 38, 62, 38, 50, 81, 17, 62, 40, 40, 12, 16, 50, 12, 59, 22, 59, 131, 153, 18, 184, 59, 31, 30, 42, 65, 65, 20, 63, 26, 28, 42, 109, 16, 12, 49, 34, 109, 43, 6, 109, 29, 80, 27, 24, 28, 97, 55, 62, 18, 55, 108, 112, 40, 10, 153, 62, 108, 129, 147, 36, 85, 18, 112, 95, 147, 25, 50, 72, 27, 91, 34, 27, 40, 37, 39, 92, 6, 49, 18, 156, 65, 104, 49, 105, 27, 156, 61, 106, 41, 40, 38, 125, 74, 12, 177, 36, 81, 61, 65, 67, 78, 26, 19, 131, 104, 61, 60, 164, 40, 67, 41, 33, 74, 53, 40, 51, 11, 100, 90, 67, 92, 49, 38, 100, 51, 137, 92, 40, 16, 53, 88, 39, 78, 73, 151, 9, 31, 92, 77, 54, 92, 54, 41, 5, 36, 57, 23, 41, 18, 36, 57, 27, 45, 39, 12, 27, 45, 42, 32, 39, 32, 37, 42, 32, 41, 56, 63, 17, 41, 40, 48, 116, 20, 30, 39, 15, 18, 116, 13, 13, 124, 18, 124, 22, 37, 18, 134, 14, 134, 17, 56, 14, 141, 172, 141, 21, 45, 172, 38, 83, 38, 5, 51, 98, 149, 92, 51, 51, 98, 173, 81, 23, 81, 97, 24, 72, 76, 136, 234, 81, 31, 58, 131, 47, 39, 78, 40, 87, 58, 56, 133, 17, 53, 31, 54, 60, 17, 51, 8, 189, 113, 43, 89, 31, 82, 47, 89, 41, 26, 53, 21, 26, 82, 30, 23, 136, 91, 57, 58, 151, 51, 97, 49, 9, 53, 49, 160, 63, 63, 160, 52, 58, 160, 22, 49, 159, 31, 49, 52, 159, 22, 31, 49, 80, 81, 49, 87, 52, 34, 23, 18, 13, 176, 119, 24, 91, 52, 30, 6, 32, 52, 29, 32, 29, 51, 31, 30, 51, 87, 82, 86, 127, 43, 86, 25, 32, 87, 25, 18, 50, 26, 43, 184, 87, 15, 39, 39, 28, 38, 37, 32, 38, 29, 30, 28, 58, 29, 20, 38, 95, 56, 28, 117, 7, 6, 20, 16, 217, 36, 45, 128, 39, 18, 128, 26, 28, 25, 63, 58, 126, 108, 46, 63, 29, 39, 54, 27, 25, 52, 27, 52, 28, 210, 17, 65, 54, 63, 65, 28, 63, 66, 67, 55, 151, 65, 67, 36, 150, 27, 55, 45, 15, 8, 217, 67, 104, 65, 45, 57, 45, 25, 58, 136, 57, 59, 64, 38, 18, 9, 24, 127, 50, 126, 59, 29, 21, 127, 32, 104, 47, 37, 48, 5, 319, 32, 169, 32, 64, 47, 137, 7, 6, 31, 26, 7, 4, 19, 79, 81, 7, 16, 49, 84, 30, 84, 104, 40, 41, 104, 105, 43, 105, 98, 32, 30, 98, 11, 55, 35, 55, 33, 40, 142, 76, 40, 142, 316, 8];
start = 433;
end= 138;
tasks = 5;
task = array2d(1..tasks, 1..nodes, [0, 0, 0, 0, 0, 0, 0, 0, 0, 0, 0, 0, 0, 0, 0, 0, 0, 0, 0, 0, 0, 0, 0, 0, 0, 0, 0, 0, 0, 0, 0, 0, 0, 0, 0, 0, 0, 0, 0, 0, 0, 0, 0, 0, 0, 0, 0, 0, 0, 0, 0, 0, 0, 0, 0, 0, 0, 0, 0, 0, 0, 0, 0, 0, 0, 0, 0, 0, 0, 0, 0, 0, 0, 1, 0, 0, 0, 0, 0, 0, 0, 0, 0, 0, 0, 0, 0, 0, 0, 0, 0, 0, 0, 0, 0, 0, 0, 0, 0, 0, 0, 0, 0, 0, 0, 0, 0, 0, 0, 0, 0, 0, 0, 0, 0, 0, 0, 0, 0, 0, 0, 0, 0, 0, 0, 0, 0, 0, 0, 0, 0, 0, 0, 0, 0, 0, 0, 0, 0, 0, 0, 0, 0, 0, 0, 0, 0, 0, 0, 0, 0, 0, 0, 0, 0, 0, 0, 0, 0, 0, 0, 0, 0, 0, 0, 0, 0, 0, 0, 0, 0, 0, 0, 0, 0, 0, 0, 0, 0, 0, 0, 0, 0, 0, 0, 0, 0, 0, 0, 0, 0, 0, 0, 0, 0, 0, 0, 0, 0, 0, 0, 0, 0, 0, 0, 0, 0, 0, 0, 0, 0, 0, 0, 0, 0, 0, 0, 0, 0, 0, 0, 0, 0, 0, 0, 0, 0, 0, 0, 0, 0, 0, 0, 0, 0, 0, 0, 0, 0, 0, 0, 0, 0, 0, 0, 0, 0, 0, 0, 0, 0, 0, 0, 0, 0, 0, 0, 0, 0, 0, 0, 0, 0, 0, 0, 0, 0, 0, 0, 0, 0, 0, 0, 0, 0, 0, 0, 0, 0, 0, 0, 0, 0, 0, 0, 0, 0, 0, 0, 0, 0, 0, 0, 0, 0, 0, 0, 0, 0, 0, 0, 0, 0, 0, 0, 0, 0, 0, 0, 0, 0, 0, 0, 0, 0, 0, 0, 0, 0, 0, 0, 0, 0, 0, 0, 0, 0, 0, 0, 0, 0, 0, 0, 0, 0, 0, 0, 0, 0, 0, 0, 0, 0, 0, 0, 0, 0, 0, 0, 0, 0, 0, 0, 0, 0, 0, 0, 0, 0, 0, 0, 0, 0, 0, 0, 0, 0, 0, 0, 0, 0, 0, 0, 0, 0, 0, 0, 0, 0, 0, 0, 0, 0, 0, 0, 0, 0, 0, 0, 0, 0, 0, 0, 0, 0, 0, 0, 0, 0, 0, 0, 0, 0, 0, 0, 0, 0, 0, 0, 0, 0, 0, 0, 0, 0, 0, 0, 0, 0, 0, 0, 0, 0, 0, 0, 0, 0, 0, 0, 0, 0, 0, 0, 0, 0, 0, 0, 0, 0, 0, 0, 0, 0, 0, 0, 0, 0, 0, 0, 0, 0, 0, 0, 0, 0, 0, 0, 0, 0, 0, 0, 0, 0, 0, 0, 0, 0, 0, 0, 0, 0, 0, 0, 0, 0, 0, 0, 0, 0, 0, 0, 0, 0, 0, 0, 0, 0, 0, 0, 0, 0, 0, 0, 0, 0, 0, 0, 0, 0, 0, 0, 0, 0, 0, 0, 0, 0, 0, 0, 0, 0, 0, 0, 0, 0, 0, 0, 0, 0, 0, 0, 0, 0, 0, 0, 0, 0, 0, 0, 0, 0, 0, 0, 0, 0, 0, 0, 0, 0, 0, 0, 0, 0, 0, 0, 0, 0, 0, 0, 0, 0, 0, 0, 0, 0, 0, 0, 0, 0, 0, 0, 0, 0, 0, 0, 0, 0, 0, 0, 0, 0, 0, 0, 0, 0, 0, 0, 0, 0, 0, 0, 0, 0, 0, 0, 0, 0, 0, 0, 0, 0, 0, 0, 0, 0, 0, 0, 0, 0, 0, 0, 0, 0, 0, 0, 0, 0, 0, 0, 0, 0, 0, 0, 0, 0, 0, 0, 0, 0, 0, 0, 0, 0, 0, 0, 0, 0, 0, 0, 0, 0, 0, 0, 0, 0, 0, 1, 0, 0, 0, 0, 0, 0, 0, 0, 0, 0, 0, 0, 0, 0, 0, 0, 0, 0, 0, 0, 0, 0, 0, 0, 0, 0, 0, 0, 0, 0, 0, 0, 0, 0, 0, 0, 0, 0, 0, 0, 0, 0, 0, 0, 0, 0, 0, 0, 0, 0, 0, 0, 0, 0, 0, 0, 0, 0, 0, 0, 0, 0, 0, 0, 0, 0, 0, 0, 0, 0, 0, 0, 0, 0, 0, 0, 0, 0, 0, 0, 0, 0, 0, 0, 0, 0, 0, 0, 0, 0, 0, 0, 0, 0, 0, 0, 0, 0, 0, 0, 0, 0, 0, 0, 0, 0, 0, 0, 0, 0, 0, 0, 0, 0, 0, 0, 0, 0, 0, 0, 0, 0, 0, 0, 0, 0, 0, 0, 0, 0, 0, 0, 0, 0, 0, 0, 0, 0, 0, 0, 0, 0, 0, 0, 0, 0, 0, 0, 0, 0, 0, 0, 0, 0, 0, 0, 0, 0, 0, 0, 0, 0, 0, 0, 0, 0, 0, 0, 0, 0, 0, 0, 0, 0, 0, 0, 0, 0, 0, 0, 0, 0, 0, 0, 0, 0, 0, 0, 0, 0, 0, 0, 0, 0, 0, 0, 0, 0, 0, 0, 0, 0, 0, 0, 0, 0, 0, 0, 0, 0, 0, 0, 0, 0, 0, 0, 0, 0, 0, 0, 0, 0, 0, 0, 0, 0, 0, 0, 0, 0, 0, 0, 0, 0, 0, 0, 0, 0, 0, 0, 0, 0, 0, 0, 0, 0, 0, 0, 0, 0, 0, 0, 0, 0, 0, 0, 0, 0, 0, 0, 0, 0, 0, 0, 0, 0, 0, 0, 0, 0, 0, 0, 0, 0, 0, 0, 0, 0, 0, 0, 0, 0, 0, 0, 0, 0, 0, 0, 0, 0, 0, 0, 0, 0, 0, 0, 0, 0, 0, 0, 0, 0, 0, 0, 0, 0, 0, 0, 0, 0, 0, 0, 0, 0, 0, 0, 0, 0, 0, 0, 0, 0, 0, 0, 0, 0, 0, 0, 0, 0, 0, 0, 0, 0, 0, 0, 0, 0, 0, 0, 0, 0, 0, 0, 0, 0, 0, 0, 0, 0, 0, 0, 0, 0, 0, 0, 0, 0, 0, 0, 0, 0, 0, 0, 0, 0, 0, 0, 0, 0, 0, 0, 0, 0, 0, 0, 0, 0, 0, 0, 0, 0, 0, 0, 0, 0, 0, 0, 0, 0, 0, 0, 0, 0, 0, 0, 0, 0, 0, 0, 0, 0, 0, 0, 0, 0, 0, 0, 0, 0, 0, 0, 0, 0, 0, 0, 0, 0, 0, 0, 0, 0, 0, 0, 0, 0, 0, 0, 0, 0, 0, 0, 0, 0, 0, 0, 0, 0, 0, 0, 0, 0, 0, 0, 0, 0, 0, 0, 0, 0, 0, 0, 0, 0, 0, 0, 0, 0, 0, 0, 0, 0, 0, 0, 0, 0, 0, 0, 0, 0, 0, 0, 0, 0, 0, 0, 0, 0, 0, 0, 0, 0, 0, 0, 0, 0, 0, 0, 0, 0, 0, 0, 0, 0, 0, 0, 0, 0, 0, 0, 0, 0, 0, 0, 0, 0, 0, 0, 0, 0, 0, 0, 0, 0, 0, 0, 0, 0, 0, 0, 0, 0, 0, 0, 0, 0, 1, 0, 0, 0, 0, 0, 0, 0, 0, 0, 0, 0, 0, 0, 0, 0, 0, 0, 0, 0, 0, 0, 0, 0, 0, 0, 0, 0, 0, 0, 0, 0, 0, 0, 0, 0, 0, 0, 0, 0, 0, 0, 0, 0, 0, 0, 0, 0, 0, 0, 0, 0, 0, 0, 0, 0, 0, 0, 0, 0, 0, 0, 0, 0, 0, 0, 0, 0, 0, 0, 0, 0, 0, 0, 0, 0, 0, 0, 0, 0, 0, 0, 0, 0, 0, 0, 0, 0, 0, 0, 0, 0, 0, 0, 0, 0, 0, 0, 0, 0, 0, 0, 0, 0, 0, 0, 0, 0, 0, 0, 0, 0, 0, 0, 0, 0, 0, 0, 0, 0, 0, 0, 0, 0, 0, 0, 0, 0, 0, 0, 0, 0, 0, 0, 0, 0, 0, 0, 0, 0, 0, 0, 0, 0, 0, 0, 0, 0, 0, 0, 0, 0, 0, 0, 0, 0, 0, 0, 0, 0, 0, 0, 0, 0, 0, 0, 0, 0, 0, 0, 0, 0, 0, 0, 0, 0, 0, 0, 0, 0, 0, 0, 0, 0, 0, 0, 0, 0, 0, 0, 0, 0, 0, 0, 0, 0, 0, 0, 0, 0, 0, 0, 0, 0, 0, 0, 0, 0, 0, 0, 0, 0, 0, 0, 0, 0, 0, 0, 0, 0, 0, 0, 0, 0, 0, 0, 0, 0, 0, 0, 0, 0, 0, 0, 0, 0, 0, 0, 0, 0, 0, 0, 0, 0, 0, 0, 0, 0, 0, 0, 0, 0, 0, 0, 0, 0, 0, 0, 0, 0, 0, 0, 0, 0, 0, 0, 0, 0, 0, 0, 0, 0, 0, 0, 0, 0, 0, 0, 0, 0, 0, 0, 0, 0, 0, 0, 0, 0, 0, 0, 0, 0, 0, 0, 0, 0, 0, 0, 0, 0, 0, 0, 0, 0, 0, 0, 0, 0, 0, 0, 0, 0, 0, 0, 0, 0, 0, 0, 0, 0, 0, 0, 0, 0, 0, 0, 0, 0, 0, 0, 0, 0, 0, 0, 0, 0, 0, 0, 0, 0, 0, 0, 0, 0, 0, 0, 0, 0, 0, 0, 0, 0, 0, 0, 0, 0, 0, 0, 0, 0, 0, 0, 0, 0, 0, 0, 0, 0, 0, 0, 0, 0, 0, 0, 0, 0, 0, 0, 0, 0, 0, 0, 0, 0, 0, 0, 0, 0, 0, 0, 0, 0, 0, 0, 0, 0, 0, 0, 0, 0, 0, 0, 0, 0, 0, 0, 0, 0, 0, 0, 0, 0, 0, 0, 0, 0, 0, 0, 0, 0, 0, 0, 0, 0, 0, 0, 0, 0, 0, 0, 0, 0, 0, 0, 0, 0, 0, 0, 0, 0, 0, 0, 0, 0, 0, 0, 0, 0, 0, 0, 0, 0, 0, 0, 0, 0, 0, 0, 0, 0, 0, 0, 0, 0, 0, 0, 0, 0, 0, 0, 0, 0, 0, 0, 0, 0, 0, 0, 0, 0, 0, 0, 0, 0, 0, 0, 0, 0, 0, 0, 0, 0, 1, 0, 0, 0, 0, 0, 0, 0, 0, 0, 0, 0, 0, 0, 0, 0, 0, 0, 0, 0, 0, 0, 0, 0, 0, 0, 0, 0, 0, 0, 0, 0, 0, 0, 0, 0, 0, 0, 0, 0, 0, 0, 0, 0, 0, 0, 0, 0, 0, 0, 0, 0, 0, 0, 0, 0, 0, 0, 0, 0, 0, 0, 0, 0, 0, 0, 0, 0, 0, 0, 0, 0, 0, 0, 0, 0, 0, 0, 0, 0, 0, 0, 0, 0, 0, 0, 0, 0, 0, 0, 0, 0, 0, 0, 0, 0, 0, 0, 0, 0, 0, 0, 0, 0, 0, 0, 0, 0, 0, 0, 0, 0, 0, 0, 0, 0, 0, 0, 0, 0, 0, 0, 0, 0, 0, 0, 0, 0, 0, 0, 0, 0, 0, 0, 0, 0, 0, 0, 0, 0, 0, 0, 0, 0, 0, 0, 0, 0, 0, 0, 0, 0, 0, 0, 0, 0, 0, 0, 0, 0, 0, 0, 0, 0, 0, 0, 0, 0, 0, 0, 0, 0, 0, 0, 0, 0, 0, 0, 0, 0, 0, 0, 0, 0, 0, 0, 0, 0, 0, 0, 0, 0, 0, 0, 0, 0, 0, 0, 0, 0, 0, 0, 0, 0, 0, 0, 0, 0, 0, 0, 0, 0, 0, 0, 0, 0, 0, 0, 0, 0, 0, 0, 0, 0, 0, 0, 0, 0, 0, 0, 0, 0, 0, 0, 0, 0, 0, 0, 0, 0, 0, 0, 0, 0, 0, 0, 0, 0, 0, 0, 0, 0, 0, 0, 0, 0, 0, 0, 0, 0, 0, 0, 0, 0, 0, 0, 0, 0, 0, 0, 0, 0, 0, 0, 0, 0, 0, 0, 0, 0, 0, 0, 0, 0, 0, 0, 0, 0, 0, 0, 0, 0, 0, 0, 0, 0, 0, 0, 0, 0, 0, 0, 0, 0, 0, 0, 0, 0, 0, 0, 0, 0, 0, 0, 0, 0, 0, 0, 0, 0, 0, 0, 0, 0, 0, 0, 0, 0, 0, 0, 0, 0, 0, 0, 0, 0, 0, 0, 0, 0, 0, 0, 0, 0, 0, 0, 0, 0, 0, 0, 0, 0, 0, 0, 0, 0, 0, 0, 0, 0, 0, 0, 0, 0, 0, 0, 0, 0, 0, 0, 0, 0, 0, 0, 0, 0, 0, 0, 0, 0, 0, 0, 0, 0, 0, 0, 0, 0, 0, 0, 0, 0, 0, 0, 0, 0, 0, 0, 0, 0, 0, 0, 0, 0, 0, 0, 0, 0, 0, 0, 0, 0, 0, 0, 0, 0, 0, 0, 0, 0, 0, 0, 0, 0, 0, 0, 0, 0, 0, 0, 0, 0, 0, 0, 0, 0, 0, 0, 0, 0, 0, 0, 0, 0, 0, 0, 0, 0, 0, 0, 0, 0, 0, 0, 0, 0, 0, 0, 0, 0, 0, 0, 0, 0, 0, 0, 0, 0, 0, 0, 0, 0, 0, 0, 0, 0, 0, 0, 0, 0, 0, 0, 0, 0, 0, 0, 0, 0, 0, 0, 0, 0, 0, 0, 0, 0, 0, 0, 0, 0, 0, 0, 0, 0, 0, 0, 0, 0, 0, 0, 0, 0, 0, 0, 0, 0, 0, 0, 0, 0, 0, 0, 0, 0, 0, 0, 0, 0, 0, 0, 0, 0, 0, 0, 0, 0, 0, 0, 0, 0, 0, 0, 0, 0, 0, 0, 0, 0, 0, 0, 0, 0, 0, 0, 0, 0, 0, 0, 0, 0, 0, 0, 0, 0, 0, 1, 0, 0, 0, 0, 0, 0, 0, 0, 0, 0, 0, 0, 0, 0, 0, 0, 0, 0, 0, 0, 0, 0, 0, 0, 0, 0, 0, 0, 0, 0, 0, 0, 0, 0, 0, 0, 0, 0, 0, 0, 0, 0, 0, 0, 0, 0, 0, 0, 0, 0, 0, 0, 0, 0, 0, 0, 0, 0, 0, 0, 0, 0, 0, 0, 0, 0, 0, 0, 0, 0, 0, 0, 0, 0, 0, 0, 0, 0, 0, 0, 0, 0, 0, 0, 0, 0, 0, 0, 0, 0, 0, 0, 0, 0, 0, 0, 0, 0, 0]);
